&CONTROL
 calculation = 'scf',
 restart_mode = 'from_scratch',
 prefix='k6',
 pseudo_dir='./pseudo_dir',
 tstress=.true.,
 tprnfor=.true.,
/
&SYSTEM
 ibrav=2,
 celldm(1)=9.d0,
 nat=2,
 ntyp=2,
 ecutwfc=50,
 ecutrho=600,
 occupations = 'fixed',
 use_all_frac = .true.,
/
&ELECTRONS
 conv_thr = 1.0D-8,
 mixing_mode = 'plain',
 mixing_beta = 0.7d0,
 diagonalization = 'cg',
/
&IONS
 ion_dynamics='bfgs',
/
&CELL
 cell_dynamics = 'bfgs',
 press=0.1d0,
/
ATOMIC_SPECIES
 B  10.811d0 B_LDA.UPF
 As 74.9216d0 As_LDA.UPF

ATOMIC_POSITIONS crystal
 B  0.d0 0.d0 0.d0
 As 0.25d0 0.25d0 0.25d0

K_POINTS automatic
  6 6 6 0 0 0

